PARAMETER_FILE = even/even_uncomplete_graph_new/de/par/random103.par
PROBLEM_FILE = even/even_uncomplete_graph_new/de/mat/random103.tsp
Successes/Runs = 0/10
Cost.min = 782, Cost.avg = 782.00, Cost.max = 782
Gap.min = 0.0000%, Gap.avg = 0.0000%, Gap.max = 0.0000%
Trials.min = 1000, Trials.avg = 1000.0, Trials.max = 1000
Time.min = 0.44 sec., Time.avg = 0.62 sec., Time.max = 0.75 sec.
Time.total = 6.24 sec.
请按任意键继续. . . 
